unsat
(define-fun f ((x (_ BitVec 64))) (_ BitVec 64) (let ((_let_1 (smol x))) (im (bvand #b0000000000000000000000000000000000000000000000000000000000000001 (shesh _let_1)) (arba (bvxor x _let_1)) (bvadd #b0000000000000000000000000000000000000000000000000000000000000001 x))))
3.28user 0.09system 0:03.37elapsed 100%CPU (0avgtext+0avgdata 195948maxresident)k
0inputs+8outputs (0major+44278minor)pagefaults 0swaps
